13927 13073 1163
8603 16397 1222
9326 16674 1127
7830 17170 1080
16403 8597 1077
10774 15226 1339
15614 11386 1216
7538 16462 1228
16437 8563 1001
14880 12120 1296
11180 15820 1195
13211 13789 1363
16356 9644 1080
8150 15850 1296
8561 15439 1326
14417 12583 1328
9348 15652 1311
16306 9694 1107
8248 16752 1168
9985 15015 1355
7405 16595 1207
12209 13791 1410
7116 16884 1152
11434 14566 1382
15932 11068 1121
11789 15211 1277
13129 12871 1390
12189 14811 1315
10018 15982 1258
12710 13290 1406
